NAME : mEgtspf.pid9433.gtsp.161061421.tour
COMMENT : Length = 161061421
COMMENT : Found by LKH [Keld Helsgaun] Tue Mar 18 17:10:15 2025
TYPE : TOUR
DIMENSION : 90
TOUR_SECTION
1
32
33
34
31
78
75
76
77
10
8
38
35
36
37
41
42
39
40
64
65
66
63
17
18
15
16
25
26
23
24
9
2
70
67
68
69
56
57
58
55
30
27
28
29
79
80
81
82
84
85
86
83
3
7
6
20
21
22
19
44
45
46
43
60
61
62
59
12
13
14
11
51
52
53
54
5
50
47
48
49
72
73
74
71
88
89
90
87
4
-1
EOF
